40 
300 
-0.5 0 0 0
0.5 0 0 -29
-7 -7 35 -22
-7 -5 35 -14
-7 -3 35 -13
-7 -1 -35 -137
-7 1 -35 -131
-7 3 -35 -114
-7 5 -35 -101
-7 7 -35 -97
-5 -7 35 -12
-5 -5 25 -15
-5 -3 -25 -68
-5 -1 25 -22
-5 1 -25 -110
-5 3 25 -16
-5 5 -25 -93
-5 7 -35 -69
-3 -7 -35 -135
-3 -5 -25 -66
-3 -3 15 -19
-3 -1 -15 -118
-3 1 -15 -136
-3 3 -15 -60
-3 5 25 -24
-3 7 35 -23
-1 -7 -35 -64
-1 -5 25 -16
-1 -3 -15 -69
-1 -1 -5 -105
-1 1 5 -16
-1 3 -15 -125
-1 5 25 -12
-1 7 35 -23
1 -7 35 -22
1 -5 -25 -75
1 -3 15 -29
1 -1 5 -27
1 1 5 -18
1 3 15 -17
1 5 -25 -117
1 7 -35 -67
3 -7 35 -14
3 -5 -25 -82
3 -3 -15 -99
3 -1 15 -22
3 1 -15 -130
3 3 -15 -123
3 5 25 -21
3 7 -35 -129
5 -7 -35 -117
5 -5 -25 -129
5 -3 25 -15
5 -1 -25 -99
5 1 25 -23
5 3 -25 -118
5 5 25 -11
5 7 -35 -111
7 -7 35 -14
7 -5 -35 -114
7 -3 35 -22
7 -1 35 -10
7 1 35 -17
7 3 35 -10
7 5 -35 -89
7 7 35 -29
